NAME: rand_0/map0_180
TYPE: TSP
COMMENT: autogenerated using a wonderful map creator
DIMENSION: 210
EDGE_WEIGHT_TYPE: EUC_2D
NODE_COORD_SECTION
1 12.0 13.0
2 74.0 7.0
3 23.0 12.0
4 73.0 35.0
5 26.0 54.0
6 22.0 8.0
7 71.0 56.0
8 66.0 55.0
9 21.0 6.0
10 78.0 36.0
11 72.0 39.0
12 10.0 9.0
13 77.0 58.0
14 70.0 55.0
15 68.0 49.0
16 68.0 52.0
17 12.0 8.0
18 76.0 52.0
19 65.0 59.0
20 20.0 11.0
21 74.0 54.0
22 71.0 43.0
23 20.0 8.0
24 3.0 11.0
25 73.0 44.0
26 22.0 9.0
27 25.0 52.0
28 73.0 5.0
29 70.0 41.0
30 30.0 58.0
31 68.0 44.0
32 68.0 8.0
33 8.0 7.0
34 71.0 51.0
35 67.0 37.0
36 71.0 36.0
37 74.0 42.0
38 77.0 5.0
39 70.0 37.0
40 71.0 42.0
41 67.0 45.0
42 76.0 62.0
43 76.0 43.0
44 74.0 59.0
45 72.0 52.0
46 23.0 10.0
47 76.0 63.0
48 70.0 44.0
49 9.0 8.0
50 14.0 4.0
51 73.0 56.0
52 69.0 60.0
53 16.0 13.0
54 69.0 43.0
55 23.0 51.0
56 76.0 50.0
57 72.0 56.0
58 27.0 55.0
59 69.0 56.0
60 71.0 47.0
61 52.0 40.0
62 72.0 18.0
63 62.0 17.0
64 54.0 13.0
65 53.0 23.0
66 64.0 23.0
67 10.0 52.0
68 59.0 18.0
69 53.0 32.0
70 57.0 57.0
71 38.0 53.0
72 49.0 53.0
73 11.0 23.0
74 41.0 24.0
75 66.0 23.0
76 68.0 20.0
77 44.0 20.0
78 24.0 26.0
79 54.0 6.0
80 50.0 54.0
81 10.0 36.0
82 53.0 16.0
83 56.0 3.0
84 59.0 11.0
85 42.0 59.0
86 44.0 56.0
87 31.0 22.0
88 54.0 24.0
89 53.0 34.0
90 36.0 18.0
91 55.0 22.0
92 12.0 27.0
93 23.0 27.0
94 28.0 23.0
95 58.0 24.0
96 66.0 21.0
97 59.0 32.0
98 14.0 42.0
99 10.0 20.0
100 13.0 19.0
101 55.0 52.0
102 10.0 29.0
103 35.0 28.0
104 45.0 60.0
105 54.0 8.0
106 8.0 59.0
107 10.0 56.0
108 12.0 20.0
109 39.0 46.0
110 66.0 18.0
111 44.0 24.0
112 44.0 33.0
113 11.0 39.0
114 54.0 19.0
115 8.0 27.0
116 36.0 43.0
117 42.0 29.0
118 65.0 24.0
119 62.0 7.0
120 63.0 6.0
121 63.0 15.0
122 40.0 22.0
123 20.0 19.0
124 34.0 18.0
125 29.0 22.0
126 40.0 31.0
127 31.0 28.0
128 38.0 43.0
129 70.0 29.0
130 38.0 61.0
131 55.0 40.0
132 58.0 39.0
133 27.0 24.0
134 55.0 58.0
135 37.0 44.0
136 57.0 22.0
137 68.0 22.0
138 37.0 53.0
139 62.0 18.0
140 54.0 14.0
141 10.0 44.0
142 57.0 40.0
143 21.0 20.0
144 40.0 42.0
145 69.0 23.0
146 47.0 29.0
147 6.0 58.0
148 50.0 28.0
149 54.0 53.0
150 10.0 37.0
151 3.0 53.0
152 60.0 50.0
153 56.0 13.0
154 41.0 46.0
155 38.0 29.0
156 9.0 57.0
157 22.0 20.0
158 38.0 38.0
159 14.0 25.0
160 12.0 37.0
161 8.0 24.0
162 33.0 23.0
163 63.0 3.0
164 45.0 61.0
165 40.0 19.0
166 12.0 21.0
167 55.0 19.0
168 70.0 17.0
169 10.0 60.0
170 70.0 26.0
171 42.0 19.0
172 36.0 33.0
173 61.0 32.0
174 10.0 23.0
175 53.0 58.0
176 57.0 19.0
177 54.0 2.0
178 12.0 51.0
179 43.0 29.0
180 54.0 11.0
181 12.0 60.0
182 13.0 25.0
183 41.0 41.0
184 6.0 19.0
185 51.0 51.0
186 43.0 47.0
187 6.0 28.0
188 7.0 27.0
189 67.0 14.0
190 53.0 24.0
191 78.0 23.0
192 44.0 55.0
193 43.0 56.0
194 10.0 53.0
195 54.0 32.0
196 30.0 19.0
197 37.0 34.0
198 66.0 15.0
199 57.0 12.0
200 54.0 59.0
201 66.0 24.0
202 42.0 51.0
203 13.0 45.0
204 73.0 29.0
205 61.0 9.0
206 39.0 36.0
207 53.0 35.0
208 59.0 30.0
209 17.0 24.0
210 30.0 21.0
211 8.0 21.0
212 37.0 36.0
213 37.0 45.0
214 41.0 27.0
215 66.0 26.0
216 63.0 9.0
217 72.0 14.0
218 13.0 29.0
219 38.0 28.0
220 26.0 26.0
221 15.0 26.0
222 51.0 55.0
223 60.0 3.0
224 59.0 51.0
225 13.0 56.0
226 53.0 37.0
227 40.0 46.0
228 76.0 20.0
229 68.0 25.0
230 15.0 19.0
231 4.0 53.0
232 13.0 31.0
233 21.0 23.0
234 3.0 20.0
235 56.0 35.0
236 39.0 49.0
237 38.0 51.0
238 56.0 44.0
239 9.0 24.0
240 11.0 21.0
START_DEPOT_SECTION
1
2
3
4
5
6
7
8
9
10
11
12
13
14
15
16
17
18
19
20
21
22
23
24
25
26
27
28
29
30
-1
END_DEPOT_SECTION
31
32
33
34
35
36
37
38
39
40
41
42
43
44
45
46
47
48
49
50
51
52
53
54
55
56
57
58
59
60
-1
EOF
